Minimize
y1p + y1m + y2p + y2m + y3p + y3m + y4p + y4m + y5p + y5m + y6p + y6m + y7p + y7m + y8p + y8m
Subject To
y1p - y1m - x1 = -3
y2p - y2m - x2 = -1
y3p - y3m - x1 = 0
y4p - y4m - x2 = 3
y5p - y5m - x1 = 2
y6p - y6m - x2 = -2
y7p - y7m - x1 = -1
y8p - y8m - x2 = -4
End